(declare-fun temp10587_2 () (_ BitVec 64))
(declare-fun temp10587_1 () (_ BitVec 64))
(declare-fun temp10587_3 () (_ BitVec 64))
(declare-fun var288560 () (_ BitVec 64))
(declare-fun temp10587_5 () (_ BitVec 64))
(declare-fun temp10587_4 () (_ BitVec 64))
(declare-fun temp10587_6 () (_ BitVec 64))
(declare-fun var786927 () (_ BitVec 64))
(declare-fun temp10587_7 () (_ BitVec 64))
(declare-fun var1450827 () (_ BitVec 64))
(declare-fun var1520241 () (_ BitVec 64))
(declare-fun temp10587_8 () (_ BitVec 64))
(declare-fun var1913479 () (_ BitVec 64))
(declare-fun var1913488 () (_ BitVec 64))
(declare-fun var2036088 () (_ BitVec 64))
(declare-fun var2634353 () (_ BitVec 64))
(declare-fun var2896497 () (_ BitVec 64))
(declare-fun temp10587_9 () (_ BitVec 64))
(declare-fun var3027591 () (_ BitVec 64))
(declare-fun var3027600 () (_ BitVec 64))
(declare-fun var3150200 () (_ BitVec 64))
(declare-fun var4141681 () (_ BitVec 64))
(declare-fun temp10587_11 () (_ BitVec 64))
(declare-fun temp10587_10 () (_ BitVec 64))
(assert (= temp10587_2 #x00000000000003cb))
(assert (= temp10587_1 temp10587_2))
(assert (= temp10587_3 #x0000000000000000))
(assert (= var288560 temp10587_3))
(assert (= temp10587_5 #x0000000000000002))
(assert (= temp10587_4 temp10587_5))
(assert (= temp10587_6 #x0000000000000000))
(assert (= var786927 temp10587_6))
(assert (= temp10587_7 #x0000000000000000))
(assert (= var786927 temp10587_7))
(assert (= var1450827 var786927))
(assert (= var1520241 var786927))
(assert (= temp10587_8 #x0000000000000001))
(assert (= var1913479 temp10587_8))
(assert (= var1913488 var1913479))
(assert (= var2036088 var1913488))
(assert (= var2634353 var786927))
(assert (= var2896497 var786927))
(assert (= temp10587_9 #x0000000000000001))
(assert (= var3027591 temp10587_9))
(assert (= var3027600 var3027591))
(assert (= var3150200 var3027600))
(assert (= var4141681 var786927))
(assert (= temp10587_11 #x0000000000000002))
(assert (= temp10587_10 temp10587_11))
(model-add temp10587_2 () (_ BitVec 64) #x00000000000003cb)
(model-add temp10587_1 () (_ BitVec 64) #x00000000000003cb)
(model-add temp10587_3 () (_ BitVec 64) #x0000000000000000)
(model-add var288560 () (_ BitVec 64) #x0000000000000000)
(model-add temp10587_5 () (_ BitVec 64) #x0000000000000002)
(model-add temp10587_4 () (_ BitVec 64) #x0000000000000002)
(model-add temp10587_6 () (_ BitVec 64) #x0000000000000000)
(model-add var786927 () (_ BitVec 64) #x0000000000000000)
(model-add temp10587_7 () (_ BitVec 64) #x0000000000000000)
(model-add var1450827 () (_ BitVec 64) #x0000000000000000)
(model-add var1520241 () (_ BitVec 64) #x0000000000000000)
(model-add temp10587_8 () (_ BitVec 64) #x0000000000000001)
(model-add var1913479 () (_ BitVec 64) #x0000000000000001)
(model-add var1913488 () (_ BitVec 64) #x0000000000000001)
(model-add var2036088 () (_ BitVec 64) #x0000000000000001)
(model-add var2634353 () (_ BitVec 64) #x0000000000000000)
(model-add var2896497 () (_ BitVec 64) #x0000000000000000)
(model-add temp10587_9 () (_ BitVec 64) #x0000000000000001)
(model-add var3027591 () (_ BitVec 64) #x0000000000000001)
(model-add var3027600 () (_ BitVec 64) #x0000000000000001)
(model-add var3150200 () (_ BitVec 64) #x0000000000000001)
(model-add var4141681 () (_ BitVec 64) #x0000000000000000)
(model-add temp10587_11 () (_ BitVec 64) #x0000000000000002)
(model-add temp10587_10 () (_ BitVec 64) #x0000000000000002)



